Results/Experiment 1 Results/Existing Benchmark/RES_40/i-40-100-13.txt
solutions: 2 nodes: 4  modelTime: 118  solveTime: 18  totalTime: 141  modelSize: 7389  readTime: 5 matchingSize: 20
