Results/Experiment 2 Results/Existing Benchmark/i-40-100-13.lp
clingo version 5.4.0
Reading from tempSRTISolver.lp ...
Solving...
Answer: 1
matched(3,2) matched(2,3) matched(32,4) matched(34,5) matched(33,6) matched(1,7) matched(30,8) matched(31,9) matched(35,10) matched(27,11) matched(18,12) matched(15,13) matched(40,14) matched(13,15) matched(22,16) matched(26,17) matched(12,18) matched(21,19) matched(37,20) matched(19,21) matched(16,22) matched(24,23) matched(23,24) matched(29,25) matched(17,26) matched(11,27) matched(36,28) matched(25,29) matched(8,30) matched(9,31) matched(4,32) matched(6,33) matched(5,34) matched(10,35) matched(28,36) matched(20,37) matched(39,38) matched(38,39) matched(14,40) matched(7,1)
Optimization: 253
Answer: 2
matched(3,2) matched(2,3) matched(32,4) matched(34,5) matched(39,6) matched(1,7) matched(30,8) matched(31,9) matched(38,10) matched(33,11) matched(18,12) matched(15,13) matched(40,14) matched(13,15) matched(22,16) matched(26,17) matched(12,18) matched(21,19) matched(37,20) matched(19,21) matched(16,22) matched(24,23) matched(23,24) matched(29,25) matched(17,26) matched(35,27) matched(36,28) matched(25,29) matched(8,30) matched(9,31) matched(4,32) matched(11,33) matched(5,34) matched(27,35) matched(28,36) matched(20,37) matched(10,38) matched(6,39) matched(14,40) matched(7,1)
Optimization: 249
OPTIMUM FOUND

Models       : 2
  Optimum    : yes
Optimization : 249
Calls        : 1
Time         : 1.230s (Solving: 0.06s 1st Model: 0.01s Unsat: 0.04s)
CPU Time     : 1.230s
